c This graph is produced by Sof A. Lee
c Experiment on graph colouring using phase coupled oscillators
c Date: 17/02/2008 11:25:14 PM
p edge 12 24
e 1 10
e 1 6
e 1 5
e 2 5
e 2 3
e 2 10
e 2 8
e 3 11
e 3 8
e 3 5
e 3 4
e 3 12
e 4 7
e 4 9
e 4 6
e 4 11
e 4 5
e 5 6
e 5 10
e 6 7
e 7 9
e 8 12
e 9 11
e 11 12
